100
128
11
26
59
17
35
26
7
41
19
15
26
57
33
16
1
34
31
1
24
21
28
48
52
11
23
19
41
44
10
26
49
7
21
64
14
51
33
3
47
44
8
55
18
55
60
51
22
33
32
1
52
22
63
25
54
40
43
36
48
40
31
57
36
16
47
27
60
32
54
35
63
63
49
33
15
58
25
60
24
23
44
30
22
19
50
59
24
36
28
4
56
24
48
36
43
32
53
35
64
25